# Solution for model example
# Objective value = 700000000
y_state0_action0 1
y_state0_action1 1
y_state1_action1 1
y_state2_action0 0
y_state2_action1 1
y_state3_action1 1
y_state4_action0 1
y_state4_action1 0
y_state5_action0 0
y_state5_action1 0
y_state6_action1 0
y_state7_action0 0
y_state7_action1 0
y_state8_action1 0
y_state9_action0 0
y_state10_action0 1
y_state11_action0 0
y_state12_action0 1
y_state13_action0 0
y_state14_action0 0
y_state15_action0 0
y_state16_action1 1
y_state17_action0 1
y_state18_action0 0
y_state19_action0 1
y_state20_action1 0
y_state21_action0 0
y_state22_action0 0
y_state23_action0 0
y_state24_action0 1
y_state25_action2 1
y_state26_action2 0
y_state26_action1 0
y_state27_action0 0
y_state28_action0 1
y_state29_action0 0
y_state30_action2 0
y_state31_action2 0
y_state31_action1 0
y_state32_action0 0
y_state33_action0 0
y_state34_action0 1
y_state35_action2 0
y_state36_action2 0
y_state37_action2 0
y_state38_action2 0
y_state38_action1 1
y_state39_action0 1
y_state40_action2 0
y_state41_action2 0
y_state42_action2 0
y_state43_action2 0
y_state44_action0 0
y_state44_action1 1
y_state45_action1 1
y_state46_action0 0
y_state46_action1 1
y_state47_action1 1
y_state48_action0 1
y_state48_action1 0
y_state49_action0 1
y_state49_action1 0
y_state50_action1 0
y_state51_action0 0
y_state51_action1 0
y_state52_action1 0
y_state53_action0 0
y_state54_action0 0
y_state55_action0 0
y_state56_action0 1
y_state57_action0 1
y_state58_action0 0
y_state59_action0 0
y_state60_action1 0
y_state61_action0 0
y_state62_action0 0
y_state63_action0 1
y_state64_action1 1
y_state65_action0 1
y_state66_action0 0
y_state67_action0 0
y_state68_action0 0
y_state69_action2 0
y_state70_action2 0
y_state70_action1 0
y_state71_action0 0
y_state72_action0 1
y_state73_action0 1
y_state74_action2 1
y_state75_action2 0
y_state75_action1 0
y_state76_action0 0
y_state77_action0 0
y_state79_action2 0
y_state80_action2 0
y_state81_action2 0
y_state82_action2 0
y_state82_action1 1
y_state83_action3 1
y_state84_action2 0
y_state85_action2 0
y_state86_action2 0
y_state87_action2 0
x_reward0_state0_lower 16
x_reward0_state0_upper 16
x_reward0_state1_lower 15
x_reward0_state1_upper 15
x_reward0_state2_lower 14
x_reward0_state2_upper 14
x_reward0_state3_lower 13
x_reward0_state3_upper 13
x_reward0_state4_lower 12
x_reward0_state4_upper 12
x_reward0_state5_lower 50000011
x_reward0_state5_upper 10000011
x_reward0_state6_lower 40000010
x_reward0_state6_upper 20000010
x_reward0_state7_lower 30000009
x_reward0_state7_upper 30000009
x_reward0_state8_lower 90000016
x_reward0_state8_upper 40000008
x_reward0_state9_lower 80000015
x_reward0_state9_upper 50000007
x_reward0_state10_lower 15
x_reward0_state10_upper 15
x_reward0_state11_lower 30000015
x_reward0_state11_upper 10000013
x_reward0_state12_lower 11
x_reward0_state12_upper 11
x_reward0_state13_lower 50000012
x_reward0_state13_upper 20000010
x_reward0_state14_lower 50000012
x_reward0_state14_upper 40000008
x_reward0_state15_lower 70000014
x_reward0_state15_upper 60000006
x_reward0_state16_lower 14
x_reward0_state16_upper 14
x_reward0_state17_lower 13
x_reward0_state17_upper 13
x_reward0_state18_lower 20000014
x_reward0_state18_upper 20000012
x_reward0_state19_lower 10
x_reward0_state19_upper 10
x_reward0_state20_lower 40000011
x_reward0_state20_upper 30000009
x_reward0_state21_lower 30000010
x_reward0_state21_upper 40000008
x_reward0_state22_lower 40000011
x_reward0_state22_upper 50000007
x_reward0_state23_lower 60000013
x_reward0_state23_upper 70000005
x_reward0_state24_lower 11
x_reward0_state24_upper 11
x_reward0_state25_lower 12
x_reward0_state25_upper 12
x_reward0_state26_lower 10000013
x_reward0_state26_upper 30000011
x_reward0_state27_lower 40000014
x_reward0_state27_upper 40000010
x_reward0_state28_lower 9
x_reward0_state28_upper 9
x_reward0_state29_lower 10000008
x_reward0_state29_upper 60000006
x_reward0_state30_lower 20000009
x_reward0_state30_upper 50000007
x_reward0_state31_lower 30000010
x_reward0_state31_upper 60000006
x_reward0_state32_lower 40000011
x_reward0_state32_upper 70000005
x_reward0_state33_lower 50000012
x_reward0_state33_upper 80000004
x_reward0_state34_lower 10
x_reward0_state34_upper 10
x_reward0_state35_lower 10000011
x_reward0_state35_upper 30000005
x_reward0_state36_lower 20000012
x_reward0_state36_upper 20000006
x_reward0_state37_lower 30000013
x_reward0_state37_upper 10000007
x_reward0_state38_lower 8
x_reward0_state38_upper 8
x_reward0_state39_lower 7
x_reward0_state39_upper 7
x_reward0_state40_lower 10000008
x_reward0_state40_upper 19999998
x_reward0_state41_lower 20000009
x_reward0_state41_upper 9999999
x_reward0_state42_lower 30000010
x_reward0_state42_upper 0
x_reward0_state43_lower 40000011
x_reward0_state43_upper 90000003
x_reward0_state44_lower 9
x_reward0_state44_upper 9
x_reward0_state45_lower 8
x_reward0_state45_upper 8
x_reward0_state46_lower 7
x_reward0_state46_upper 7
x_reward0_state47_lower 6
x_reward0_state47_upper 6
x_reward0_state48_lower 5
x_reward0_state48_upper 5
x_reward0_state49_lower 6
x_reward0_state49_upper 6
x_reward0_state50_lower 50000005
x_reward0_state50_upper 10000005
x_reward0_state51_lower 40000004
x_reward0_state51_upper 20000004
x_reward0_state52_lower 70000003
x_reward0_state52_upper 30000003
x_reward0_state53_lower 60000002
x_reward0_state53_upper 40000002
x_reward0_state54_lower 0
x_reward0_state54_upper 0
x_reward0_state55_lower 0
x_reward0_state55_upper 10000006
x_reward0_state56_lower 4
x_reward0_state56_upper 4
x_reward0_state57_lower 5
x_reward0_state57_upper 5
x_reward0_state58_lower 30000005
x_reward0_state58_upper 30000003
x_reward0_state59_lower 70000001
x_reward0_state59_upper 50000001
x_reward0_state60_lower 0
x_reward0_state60_upper 0
x_reward0_state61_lower 0
x_reward0_state61_upper 0
x_reward0_state62_lower 0
x_reward0_state62_upper 0
x_reward0_state63_lower 3
x_reward0_state63_upper 3
x_reward0_state64_lower 4
x_reward0_state64_upper 4
x_reward0_state65_lower 3
x_reward0_state65_upper 3
x_reward0_state66_lower 20000004
x_reward0_state66_upper 40000002
x_reward0_state67_lower 60000000
x_reward0_state67_upper 60000000
x_reward0_state68_lower 0
x_reward0_state68_upper 0
x_reward0_state69_lower 0
x_reward0_state69_upper 0
x_reward0_state70_lower 0
x_reward0_state70_upper 0
x_reward0_state71_lower 0
x_reward0_state71_upper 0
x_reward0_state72_lower 2
x_reward0_state72_upper 2
x_reward0_state73_lower 1
x_reward0_state73_upper 1
x_reward0_state74_lower 2
x_reward0_state74_upper 2
x_reward0_state75_lower 10000003
x_reward0_state75_upper 50000001
x_reward0_state76_lower 40000004
x_reward0_state76_upper 60000000
x_reward0_state77_lower 50000005
x_reward0_state77_upper 69999999
x_reward0_state78_lower 0
x_reward0_state78_upper 0
x_reward0_state79_lower 0
x_reward0_state79_upper 0
x_reward0_state80_lower 0
x_reward0_state80_upper 0
x_reward0_state81_lower 0
x_reward0_state81_upper 0
x_reward0_state82_lower 1
x_reward0_state82_upper 1
x_reward0_state83_lower 0
x_reward0_state83_upper 0
x_reward0_state84_lower 10000001
x_reward0_state84_upper 0
x_reward0_state85_lower 20000002
x_reward0_state85_upper 9999999
x_reward0_state86_lower 30000003
x_reward0_state86_upper 0
x_reward0_state87_lower 40000004
x_reward0_state87_upper 79999998
